INCAR created by Atomic Simulation Environment
 ENCUT = 500.000000
 KSPACING = 0.150000 #Grid 3*3*3
 GGA = PE 
 SIGMA = 0.050000
 ISMEAR = 0
 LASPH = .TRUE.
 IBRION = 3
 POTIM = 0.1 

 ISTART = 1 #
 NELM = 100
 NSW = 200
 ISIF = 3 # 
 EDIFF = 1.00e-05
 EDIFFG = -0.03 #
 #LREAL = .False.
 #ALGO = All
 NCORE = 12
 #PREC = Accurate
 LCHARG = .FALSE.
 LWAVE = .FALSE.

 NBANDS = 1840
 NCORE = 40
 KPAR = 2
 NPAR = 2

