INCAR created by Atomic Simulation Environment
 ENCUT = 500.000000
 KSPACING = 0.150000 #Grid 3*3*3
 GGA = PE 
 SIGMA = 0.050000
 ISMEAR = 0
 LASPH = .TRUE.
 IBRION = 3 
 POTIM = 0.01

 ISTART = 0
 NELM = 100
 NSW = 200
 ISIF = 2
 EDIFF = 1.00e-05
 EDIFFG = -0.05
 LREAL = Auto
 #ALGO = All

 #PREC = Accurate
 #LCHARG = .FALSE.
 #LWAVE = .FALSE.
 
 NBANDS = 1824
 NCORE = 24
 KPAR = 2
 NPAR = 2
 
