Ge
 1.0000000000000000
    11.1964601614081776    0.0000000000000000    0.0000000000000000
     0.0000000000000000   11.1964601614081776    0.0000000000000000
     0.0000000000000000    0.0000000000000000   11.1964601614081776
 Ge 
  64
Cartesian
  0.0000000000000000  0.0000000000000000  0.0000000000000000
  1.3995575201760222  1.3995575201760222  1.3995575201760222
  0.0000000000000000  2.7991150403520444  2.7991150403520444
  1.3995575201760222  4.1986725605280668  4.1986725605280668
  2.7991150403520444  0.0000000000000000  2.7991150403520444
  4.1986725605280668  1.3995575201760222  4.1986725605280668
  2.7991150403520444  2.7991150403520444  0.0000000000000000
  4.1986725605280668  4.1986725605280668  1.3995575201760222
  0.0000000000000000  0.0000000000000000  5.5982300807040879
  1.3995575201760222  1.3995575201760222  6.9977876008801108
  0.0000000000000000  2.7991150403520444  8.3973451210561336
  1.3995575201760222  4.1986725605280668  9.7969026412321547
  2.7991150403520444  0.0000000000000000  8.3973451210561336
  4.1986725605280668  1.3995575201760222  9.7969026412321547
  2.7991150403520444  2.7991150403520444  5.5982300807040879
  4.1986725605280668  4.1986725605280668  6.9977876008801108
  0.0000000000000000  5.5982300807040879  0.0000000000000000
  1.3995575201760222  6.9977876008801108  1.3995575201760222
  0.0000000000000000  8.3973451210561336  2.7991150403520444
  1.3995575201760222  9.7969026412321547  4.1986725605280668
  2.7991150403520444  5.5982300807040879  2.7991150403520444
  4.1986725605280668  6.9977876008801108  4.1986725605280668
  2.7991150403520444  8.3973451210561336  0.0000000000000000
  4.1986725605280668  9.7969026412321547  1.3995575201760222
  0.0000000000000000  5.5982300807040879  5.5982300807040879
  1.3995575201760222  6.9977876008801108  6.9977876008801108
  0.0000000000000000  8.3973451210561336  8.3973451210561336
  1.3995575201760222  9.7969026412321547  9.7969026412321547
  2.7991150403520444  5.5982300807040879  8.3973451210561336
  4.1986725605280668  6.9977876008801108  9.7969026412321547
  2.7991150403520444  8.3973451210561336  5.5982300807040879
  4.1986725605280668  9.7969026412321547  6.9977876008801108
  5.5982300807040879  0.0000000000000000  0.0000000000000000
  6.9977876008801108  1.3995575201760222  1.3995575201760222
  5.5982300807040879  2.7991150403520444  2.7991150403520444
  6.9977876008801108  4.1986725605280668  4.1986725605280668
  8.3973451210561336  0.0000000000000000  2.7991150403520444
  9.7969026412321547  1.3995575201760222  4.1986725605280668
  8.3973451210561336  2.7991150403520444  0.0000000000000000
  9.7969026412321547  4.1986725605280668  1.3995575201760222
  5.5982300807040879  0.0000000000000000  5.5982300807040879
  6.9977876008801108  1.3995575201760222  6.9977876008801108
  5.5982300807040879  2.7991150403520444  8.3973451210561336
  6.9977876008801108  4.1986725605280668  9.7969026412321547
  8.3973451210561336  0.0000000000000000  8.3973451210561336
  9.7969026412321547  1.3995575201760222  9.7969026412321547
  8.3973451210561336  2.7991150403520444  5.5982300807040879
  9.7969026412321547  4.1986725605280668  6.9977876008801108
  5.5982300807040879  5.5982300807040879  0.0000000000000000
  6.9977876008801108  6.9977876008801108  1.3995575201760222
  5.5982300807040879  8.3973451210561336  2.7991150403520444
  6.9977876008801108  9.7969026412321547  4.1986725605280668
  8.3973451210561336  5.5982300807040879  2.7991150403520444
  9.7969026412321547  6.9977876008801108  4.1986725605280668
  8.3973451210561336  8.3973451210561336  0.0000000000000000
  9.7969026412321547  9.7969026412321547  1.3995575201760222
  5.5982300807040879  5.5982300807040879  5.5982300807040879
  6.9977876008801108  6.9977876008801108  6.9977876008801108
  5.5982300807040879  8.3973451210561336  8.3973451210561336
  6.9977876008801108  9.7969026412321547  9.7969026412321547
  8.3973451210561336  5.5982300807040879  8.3973451210561336
  9.7969026412321547  6.9977876008801108  9.7969026412321547
  8.3973451210561336  8.3973451210561336  5.5982300807040879
  9.7969026412321547  9.7969026412321547  6.9977876008801108
