Ge                                      
   1.0000000000000000     
    11.4576834661285023   -0.0000000000000000    0.0000000000000000
    -0.0000000000000000   11.4576834661285023   -0.0000000000000000
    -0.0000000000000001   -0.0000000000000000   11.4576834661285023
   Ge
    63
Direct
  0.0000000000000000  0.0000000000000000  0.0000000000000000
  0.1251261407130106  0.1251261407130106  0.1251261407130106
  0.0000317392288541  0.2506499752630335  0.2506499752630335
  0.1267654850110194  0.3752973471077553  0.3752973471077553
  0.2506499752630335  0.0000317392288541  0.2506499752630335
  0.3752973471077553  0.1267654850110194  0.3752973471077553
  0.2506499752630335  0.2506499752630335  0.0000317392288541
  0.3752973471077553  0.3752973471077553  0.1267654850110194
  0.0000000000000000  0.0000000000000000  0.5000000000000000
  0.1267303041437532  0.1267303041437532  0.6249931247739546
  0.9999682607711461  0.2506499752630335  0.7493500247369660
  0.1267303041437532  0.3750068752260450  0.8732696958562473
  0.2506499752630335  0.9999682607711461  0.7493500247369660
  0.3750068752260450  0.1267303041437532  0.8732696958562473
  0.2556614711059141  0.2556614711059141  0.5022666796941887
  0.3943416758551896  0.3943416758551896  0.6056583241448105
  0.0000000000000000  0.5000000000000000  0.0000000000000000
  0.1267303041437532  0.6249931247739546  0.1267303041437532
  0.9999682607711461  0.7493500247369660  0.2506499752630335
  0.1267303041437532  0.8732696958562473  0.3750068752260450
  0.2556614711059141  0.5022666796941887  0.2556614711059141
  0.3943416758551896  0.6056583241448105  0.3943416758551896
  0.2506499752630335  0.7493500247369660  0.9999682607711461
  0.3750068752260450  0.8732696958562473  0.1267303041437532
  0.0000000000000000  0.5000000000000000  0.5000000000000000
  0.1267654850110194  0.6247026528922451  0.6247026528922451
  0.0000317392288541  0.7493500247369660  0.7493500247369660
  0.1251261407130106  0.8748738592869891  0.8748738592869891
  0.2556614711059141  0.4977333203058110  0.7443385288940854
  0.3752973471077553  0.6247026528922451  0.8732345149889805
  0.2556614711059141  0.7443385288940854  0.4977333203058110
  0.3752973471077553  0.8732345149889805  0.6247026528922451
  0.5000000000000000  0.0000000000000000  0.0000000000000000
  0.6249931247739546  0.1267303041437532  0.1267303041437532
  0.5022666796941887  0.2556614711059141  0.2556614711059141
  0.6056583241448105  0.3943416758551896  0.3943416758551896
  0.7493500247369660  0.9999682607711461  0.2506499752630335
  0.8732696958562473  0.1267303041437532  0.3750068752260450
  0.7493500247369660  0.2506499752630335  0.9999682607711461
  0.8732696958562473  0.3750068752260450  0.1267303041437532
  0.5000000000000000  0.0000000000000000  0.5000000000000000
  0.6247026528922451  0.1267654850110194  0.6247026528922451
  0.4977333203058110  0.2556614711059141  0.7443385288940854
  0.6247026528922451  0.3752973471077553  0.8732345149889805
  0.7493500247369660  0.0000317392288541  0.7493500247369660
  0.8748738592869891  0.1251261407130106  0.8748738592869891
  0.7443385288940854  0.2556614711059141  0.4977333203058110
  0.8732345149889805  0.3752973471077553  0.6247026528922451
  0.5000000000000000  0.5000000000000000  0.0000000000000000
  0.6247026528922451  0.6247026528922451  0.1267654850110194
  0.4977333203058110  0.7443385288940854  0.2556614711059141
  0.6247026528922451  0.8732345149889805  0.3752973471077553
  0.7443385288940854  0.4977333203058110  0.2556614711059141
  0.8732345149889805  0.6247026528922451  0.3752973471077553
  0.7493500247369660  0.7493500247369660  0.0000317392288541
  0.8748738592869891  0.8748738592869891  0.1251261407130106
  0.6056583241448105  0.6056583241448105  0.6056583241448105
  0.5022666796941887  0.7443385288940854  0.7443385288940854
  0.6249931247739546  0.8732696958562473  0.8732696958562473
  0.7443385288940854  0.5022666796941887  0.7443385288940854
  0.8732696958562473  0.6249931247739546  0.8732696958562473
  0.7443385288940854  0.7443385288940854  0.5022666796941887
  0.8732696958562473  0.8732696958562473  0.6249931247739546

  0.00000000E+00  0.00000000E+00  0.00000000E+00
  0.00000000E+00  0.00000000E+00  0.00000000E+00
  0.00000000E+00  0.00000000E+00  0.00000000E+00
  0.00000000E+00  0.00000000E+00  0.00000000E+00
  0.00000000E+00  0.00000000E+00  0.00000000E+00
  0.00000000E+00  0.00000000E+00  0.00000000E+00
  0.00000000E+00  0.00000000E+00  0.00000000E+00
  0.00000000E+00  0.00000000E+00  0.00000000E+00
  0.00000000E+00  0.00000000E+00  0.00000000E+00
  0.00000000E+00  0.00000000E+00  0.00000000E+00
  0.00000000E+00  0.00000000E+00  0.00000000E+00
  0.00000000E+00  0.00000000E+00  0.00000000E+00
  0.00000000E+00  0.00000000E+00  0.00000000E+00
  0.00000000E+00  0.00000000E+00  0.00000000E+00
  0.00000000E+00  0.00000000E+00  0.00000000E+00
  0.00000000E+00  0.00000000E+00  0.00000000E+00
  0.00000000E+00  0.00000000E+00  0.00000000E+00
  0.00000000E+00  0.00000000E+00  0.00000000E+00
  0.00000000E+00  0.00000000E+00  0.00000000E+00
  0.00000000E+00  0.00000000E+00  0.00000000E+00
  0.00000000E+00  0.00000000E+00  0.00000000E+00
  0.00000000E+00  0.00000000E+00  0.00000000E+00
  0.00000000E+00  0.00000000E+00  0.00000000E+00
  0.00000000E+00  0.00000000E+00  0.00000000E+00
  0.00000000E+00  0.00000000E+00  0.00000000E+00
  0.00000000E+00  0.00000000E+00  0.00000000E+00
  0.00000000E+00  0.00000000E+00  0.00000000E+00
  0.00000000E+00  0.00000000E+00  0.00000000E+00
  0.00000000E+00  0.00000000E+00  0.00000000E+00
  0.00000000E+00  0.00000000E+00  0.00000000E+00
  0.00000000E+00  0.00000000E+00  0.00000000E+00
  0.00000000E+00  0.00000000E+00  0.00000000E+00
  0.00000000E+00  0.00000000E+00  0.00000000E+00
  0.00000000E+00  0.00000000E+00  0.00000000E+00
  0.00000000E+00  0.00000000E+00  0.00000000E+00
  0.00000000E+00  0.00000000E+00  0.00000000E+00
  0.00000000E+00  0.00000000E+00  0.00000000E+00
  0.00000000E+00  0.00000000E+00  0.00000000E+00
  0.00000000E+00  0.00000000E+00  0.00000000E+00
  0.00000000E+00  0.00000000E+00  0.00000000E+00
  0.00000000E+00  0.00000000E+00  0.00000000E+00
  0.00000000E+00  0.00000000E+00  0.00000000E+00
  0.00000000E+00  0.00000000E+00  0.00000000E+00
  0.00000000E+00  0.00000000E+00  0.00000000E+00
  0.00000000E+00  0.00000000E+00  0.00000000E+00
  0.00000000E+00  0.00000000E+00  0.00000000E+00
  0.00000000E+00  0.00000000E+00  0.00000000E+00
  0.00000000E+00  0.00000000E+00  0.00000000E+00
  0.00000000E+00  0.00000000E+00  0.00000000E+00
  0.00000000E+00  0.00000000E+00  0.00000000E+00
  0.00000000E+00  0.00000000E+00  0.00000000E+00
  0.00000000E+00  0.00000000E+00  0.00000000E+00
  0.00000000E+00  0.00000000E+00  0.00000000E+00
  0.00000000E+00  0.00000000E+00  0.00000000E+00
  0.00000000E+00  0.00000000E+00  0.00000000E+00
  0.00000000E+00  0.00000000E+00  0.00000000E+00
  0.00000000E+00  0.00000000E+00  0.00000000E+00
  0.00000000E+00  0.00000000E+00  0.00000000E+00
  0.00000000E+00  0.00000000E+00  0.00000000E+00
  0.00000000E+00  0.00000000E+00  0.00000000E+00
  0.00000000E+00  0.00000000E+00  0.00000000E+00
  0.00000000E+00  0.00000000E+00  0.00000000E+00
  0.00000000E+00  0.00000000E+00  0.00000000E+00
