units           metal
boundary        p p p
atom_style      atomic

read_data       atom.data

{ff_settings}
mass              1 {mass}

thermo          10
thermo_style custom step pe ke etotal

run             1

