units           metal
boundary        p p p
atom_style      atomic


read_data       bulk.data
mass            1 {mass}

#------------------------------------ FORCE FIELD ----------------------------------
{ff_settings}

thermo          10
thermo_style custom step pe ke etotal

run             1
